30 1 6
961 531 117 733 151 92 214 926 244 140 676 344 723 459 626 60 52 347 323 592 562 895 138 213 219 31 301 62 752 169 
511 712 52 627 797 202 718 362 127 313 501 154 656 576 612 282 635 663 980 309 254 541 556 392 754 774 774 54 835 877 
574 697 941 625 675 737 826 744 98 304 408 950 458 64 525 69 697 512 732 676 172 337 216 727 80 321 852 854 374 686 
82 300 734 22 924 760 758 102 503 207 757 911 157 214 326 681 635 22 544 718 49 716 54 616 442 134 937 294 339 662 
331 420 313 417 442 589 176 551 690 679 758 798 941 914 12 266 946 998 639 490 715 687 205 768 654 998 253 942 643 591 
604 974 11 916 390 804 856 565 354 545 595 463 695 535 376 58 152 322 55 790 163 769 828 719 888 834 716 141 775 711 
830 7300 6840 4450 9980 4250 6000 8530 3410 3060 7500 2880 7680 4440 1740 4960 5010 3260 8170 5550 4670 3310 6750 6470 490 9140 4800 1160 4060 2540 
74610
